\ Generated by MPModelProtoExporter
\   Name             : 
\   Format           : Free
\   Constraints      : 36
\   Variables        : 56
\     Binary         : 56
\     Integer        : 0
\     Continuous     : 0
Maximize
 Obj: +9 X01 +3 X02 +4 X03 +2 X04 +1 X05 +5 X06 +6 X07 +1 X12 +7 X13 +3 X14 +5 X15 +2 X16 +1 X17 +4 X23 +4 X24 +2 X25 +9 X26 +2 X27 +1 X34 +5 X35 +5 X36 +2 X37 +8 X45 +7 X46 +6 X47 +2 X56 +3 X57 +4 X67 
Subject to
 auto_c_000000000: +1 X01 +1 X02 +1 X03 +1 X04 +1 X05 +1 X06 +1 X07  = 1
 auto_c_000000001: +1 X10 +1 X12 +1 X13 +1 X14 +1 X15 +1 X16 +1 X17  = 1
 auto_c_000000002: +1 X20 +1 X21 +1 X23 +1 X24 +1 X25 +1 X26 +1 X27  = 1
 auto_c_000000003: +1 X30 +1 X31 +1 X32 +1 X34 +1 X35 +1 X36 +1 X37  = 1
 auto_c_000000004: +1 X40 +1 X41 +1 X42 +1 X43 +1 X45 +1 X46 +1 X47  = 1
 auto_c_000000005: +1 X50 +1 X51 +1 X52 +1 X53 +1 X54 +1 X56 +1 X57  = 1
 auto_c_000000006: +1 X60 +1 X61 +1 X62 +1 X63 +1 X64 +1 X65 +1 X67  = 1
 auto_c_000000007: +1 X70 +1 X71 +1 X72 +1 X73 +1 X74 +1 X75 +1 X76  = 1
 x_01: +1 X01 -1 X10  = 0
 x_02: +1 X02 -1 X20  = 0
 x_03: +1 X03 -1 X30  = 0
 x_04: +1 X04 -1 X40  = 0
 x_05: +1 X05 -1 X50  = 0
 x_06: +1 X06 -1 X60  = 0
 x_07: +1 X07 -1 X70  = 0
 x_12: +1 X12 -1 X21  = 0
 x_13: +1 X13 -1 X31  = 0
 x_14: +1 X14 -1 X41  = 0
 x_15: +1 X15 -1 X51  = 0
 x_16: +1 X16 -1 X61  = 0
 x_17: +1 X17 -1 X71  = 0
 x_23: +1 X23 -1 X32  = 0
 x_24: +1 X24 -1 X42  = 0
 x_25: +1 X25 -1 X52  = 0
 x_26: +1 X26 -1 X62  = 0
 x_27: +1 X27 -1 X72  = 0
 x_34: +1 X34 -1 X43  = 0
 x_35: +1 X35 -1 X53  = 0
 x_36: +1 X36 -1 X63  = 0
 x_37: +1 X37 -1 X73  = 0
 x_45: +1 X45 -1 X54  = 0
 x_46: +1 X46 -1 X64  = 0
 x_47: +1 X47 -1 X74  = 0
 x_56: +1 X56 -1 X65  = 0
 x_57: +1 X57 -1 X75  = 0
 x_67: +1 X67 -1 X76  = 0
Bounds
 0 <= X01 <= 1
 0 <= X02 <= 1
 0 <= X03 <= 1
 0 <= X04 <= 1
 0 <= X05 <= 1
 0 <= X06 <= 1
 0 <= X07 <= 1
 0 <= X10 <= 1
 0 <= X12 <= 1
 0 <= X13 <= 1
 0 <= X14 <= 1
 0 <= X15 <= 1
 0 <= X16 <= 1
 0 <= X17 <= 1
 0 <= X20 <= 1
 0 <= X21 <= 1
 0 <= X23 <= 1
 0 <= X24 <= 1
 0 <= X25 <= 1
 0 <= X26 <= 1
 0 <= X27 <= 1
 0 <= X30 <= 1
 0 <= X31 <= 1
 0 <= X32 <= 1
 0 <= X34 <= 1
 0 <= X35 <= 1
 0 <= X36 <= 1
 0 <= X37 <= 1
 0 <= X40 <= 1
 0 <= X41 <= 1
 0 <= X42 <= 1
 0 <= X43 <= 1
 0 <= X45 <= 1
 0 <= X46 <= 1
 0 <= X47 <= 1
 0 <= X50 <= 1
 0 <= X51 <= 1
 0 <= X52 <= 1
 0 <= X53 <= 1
 0 <= X54 <= 1
 0 <= X56 <= 1
 0 <= X57 <= 1
 0 <= X60 <= 1
 0 <= X61 <= 1
 0 <= X62 <= 1
 0 <= X63 <= 1
 0 <= X64 <= 1
 0 <= X65 <= 1
 0 <= X67 <= 1
 0 <= X70 <= 1
 0 <= X71 <= 1
 0 <= X72 <= 1
 0 <= X73 <= 1
 0 <= X74 <= 1
 0 <= X75 <= 1
 0 <= X76 <= 1
Binaries
 X01
 X02
 X03
 X04
 X05
 X06
 X07
 X10
 X12
 X13
 X14
 X15
 X16
 X17
 X20
 X21
 X23
 X24
 X25
 X26
 X27
 X30
 X31
 X32
 X34
 X35
 X36
 X37
 X40
 X41
 X42
 X43
 X45
 X46
 X47
 X50
 X51
 X52
 X53
 X54
 X56
 X57
 X60
 X61
 X62
 X63
 X64
 X65
 X67
 X70
 X71
 X72
 X73
 X74
 X75
 X76
End
